unsat
(define-fun skel ((n319 Bool) (n315 Bool) (n325 Bool) (n322 Bool)) Bool (and n325 (and n322 (or (and n319 n315) (not (or n319 n315))))))
3.84user 0.00system 0:03.85elapsed 99%CPU (0avgtext+0avgdata 34236maxresident)k
0inputs+8outputs (0major+3285minor)pagefaults 0swaps
